unsat
((set-logic NIA)
(proof
(let (($x244 (exists ((q Int) (r Int) (y Int) )(! (let ((?x36 (* q00 y00)))
 (let ((?x90 (* (- 1) ?x36)))
 (let ((?x66 (* (- 1) r00)))
 (let ((?x68 (* (- 1) y00)))
 (let (($x133 (not (= (+ r ?x68 ?x66 ?x90 (* y00 (+ 1 q))) 0))))
 (let (($x252 (= (+ r ?x66 ?x90 (* y00 q)) 0)))
 (let ((?x119 (* (- 1) y)))
 (let ((?x89 (+ y00 ?x119)))
 (let (($x280 (= ?x89 0)))
 (and $x280 $x252 $x133)))))))))) :qid k!31))
 ))
 (let (($x230 (exists ((q Int) (r Int) (y Int) )(! false :qid k!31))
 ))
 (let ((@x236 (elim-unused (= $x230 false))))
 (let ((?x150 (lambda ((q Int) (r Int) (y Int) )(let ((?x36 (* q00 y00)))
 (let ((?x90 (* (- 1) ?x36)))
 (let ((?x66 (* (- 1) r00)))
 (let ((?x68 (* (- 1) y00)))
 (let (($x133 (not (= (+ r ?x68 ?x66 ?x90 (* y00 (+ 1 q))) 0))))
 (let (($x252 (= (+ r ?x66 ?x90 (* y00 q)) 0)))
 (let ((?x119 (* (- 1) y)))
 (let ((?x89 (+ y00 ?x119)))
 (let (($x280 (= ?x89 0)))
 (let (($x254 (and $x280 $x252 $x133)))
 (let (($x102 (= (+ r ?x66 (* q y00) (* (- 1) (* y00 q00))) 0)))
 (let (($x110 (not $x102)))
 (let (($x77 (= (+ y ?x68) 0)))
 (let (($x223 (and $x77 $x102 $x110)))
 (let ((@x227 (rewrite (= $x223 false))))
 (let ((@x270 (monotonicity (rewrite (= ?x89 (+ ?x119 y00))) (= $x280 (= (+ ?x119 y00) 0)))))
 (let ((@x275 (trans @x270 (rewrite (= (= (+ ?x119 y00) 0) $x77)) (= $x280 $x77))))
 (let ((@x142 (monotonicity @x275 (rewrite (= $x252 $x102)) (rewrite (= $x133 $x110)) (= $x254 $x223))))
 (trans @x142 @x227 (= $x254 false)))))))))))))))))))))
 ))
 (let ((@x251 (trans (quant-intro (proof-bind ?x150) (= $x244 $x230)) @x236 (= $x244 false))))
 (let (($x285 (exists ((q Int) (r Int) (y Int) )(! (let ((?x36 (* q00 y00)))
 (let ((?x90 (* (- 1) ?x36)))
 (let ((?x66 (* (- 1) r00)))
 (let ((?x68 (* (- 1) y00)))
 (let (($x133 (not (= (+ r ?x68 ?x66 ?x90 (* y00 (+ 1 q))) 0))))
 (let (($x252 (= (+ r ?x66 ?x90 (* y00 q)) 0)))
 (and (= (+ ?x68 y) 0) $x252 $x133))))))) :qid k!31))
 ))
 (let ((?x282 (lambda ((q Int) (r Int) (y Int) )(let ((?x36 (* q00 y00)))
 (let ((?x90 (* (- 1) ?x36)))
 (let ((?x66 (* (- 1) r00)))
 (let ((?x68 (* (- 1) y00)))
 (let (($x133 (not (= (+ r ?x68 ?x66 ?x90 (* y00 (+ 1 q))) 0))))
 (let (($x252 (= (+ r ?x66 ?x90 (* y00 q)) 0)))
 (let ((?x119 (* (- 1) y)))
 (let ((?x89 (+ y00 ?x119)))
 (let (($x280 (= ?x89 0)))
 (let (($x254 (and $x280 $x252 $x133)))
 (let (($x283 (and (= (+ ?x68 y) 0) $x252 $x133)))
 (rewrite (= $x283 $x254))))))))))))))
 ))
 (let (($x63 (exists ((q Int) (r Int) (y Int) )(! (let ((?x30 (* (- 1) y00)))
 (let ((?x42 (+ ?x30 y00)))
 (let ((?x45 (- r y00)))
 (let ((?x48 (+ q 1)))
 (let ((?x56 (* 5 ?x48 ?x48 ?x45 y00)))
 (let ((?x54 (* 3 ?x48 ?x48 ?x45)))
 (let ((?x57 (+ ?x54 ?x56)))
 (let ((?x58 (* ?x57 ?x42)))
 (let (($x59 (= ?x58 0)))
 (let (($x60 (not $x59)))
 (let (($x52 (not (= (+ (- (- ?x45 r00) (* q00 y00)) (* ?x48 y00)) 0))))
 (let (($x43 (= ?x42 0)))
 (let (($x44 (not $x43)))
 (let (($x61 (or $x44 $x52 $x60)))
 (let (($x41 (= (+ (- (- r r00) (* q00 y00)) (* q y00)) 0)))
 (let (($x33 (= (+ ?x30 y) 0)))
 (and $x33 $x41 $x61))))))))))))))))) :qid k!31))
 ))
 (let ((?x287 (lambda ((q Int) (r Int) (y Int) )(let ((?x36 (* q00 y00)))
 (let ((?x90 (* (- 1) ?x36)))
 (let ((?x66 (* (- 1) r00)))
 (let ((?x68 (* (- 1) y00)))
 (let (($x133 (not (= (+ r ?x68 ?x66 ?x90 (* y00 (+ 1 q))) 0))))
 (let (($x252 (= (+ r ?x66 ?x90 (* y00 q)) 0)))
 (let (($x283 (and (= (+ ?x68 y) 0) $x252 $x133)))
 (let ((?x30 (* (- 1) y00)))
 (let ((?x42 (+ ?x30 y00)))
 (let ((?x45 (- r y00)))
 (let ((?x48 (+ q 1)))
 (let ((?x56 (* 5 ?x48 ?x48 ?x45 y00)))
 (let ((?x54 (* 3 ?x48 ?x48 ?x45)))
 (let ((?x57 (+ ?x54 ?x56)))
 (let ((?x58 (* ?x57 ?x42)))
 (let (($x59 (= ?x58 0)))
 (let (($x60 (not $x59)))
 (let (($x52 (not (= (+ (- (- ?x45 r00) ?x36) (* ?x48 y00)) 0))))
 (let (($x43 (= ?x42 0)))
 (let (($x44 (not $x43)))
 (let (($x61 (or $x44 $x52 $x60)))
 (let (($x41 (= (+ (- (- r r00) ?x36) (* q y00)) 0)))
 (let (($x33 (= (+ ?x30 y) 0)))
 (let (($x62 (and $x33 $x41 $x61)))
 (rewrite (= $x62 $x283)))))))))))))))))))))))))))
 ))
 (let ((@x64 (asserted $x63)))
 (let ((@x255 (mp (mp @x64 (quant-intro (proof-bind ?x287) (= $x63 $x285)) $x285) (rewrite (= $x285 $x285)) $x285)))
 (mp (mp @x255 (quant-intro (proof-bind ?x282) (= $x285 $x244)) $x244) @x251 false))))))))))))))

(:max-memory   3.35
 :memory       3.04
 :mk-bool-var  6
 :num-allocs   980499
 :num-checks   1
 :rlimit-count 409
 :time         0.01
 :total-time   0.02)
